(declare-fun var0 () String)
(assert (RegexIn var0 (RegexConcat (RegexUnion (RegexUnion (RegexStar (RegexUnion (RegexPlus (Str2Reg "666")) (RegexUnion (Str2Reg "777") (Str2Reg "88")))) (RegexUnion (RegexStar (RegexUnion (Str2Reg "9") (Str2Reg "a"))) (RegexUnion (RegexStar (Str2Reg "bb")) (RegexStar (Str2Reg "c"))))) (RegexStar (RegexStar (RegexUnion (RegexPlus (Str2Reg "dd")) (RegexStar (Str2Reg "eee")))))) (RegexUnion (RegexPlus (RegexUnion (RegexPlus (RegexUnion (Str2Reg "0") (Str2Reg "1"))) (RegexStar (RegexPlus (Str2Reg "2"))))) (RegexStar (RegexUnion (RegexUnion (RegexPlus (Str2Reg "333")) (RegexPlus (Str2Reg "44"))) (RegexPlus (RegexStar (Str2Reg "5")))))))))
(assert (<= 15 (Length var0)))
(check-sat)